c cksystemsgroup.github.io/unicorn
c CNF contains a total of 532 clauses.
c CNF contains a total of 150 variables.
c CNF clauses cover 1 bad states.
c Variable name mapping (33 names):
c   1: input[bit=0]
c   2: input[bit=0]
c   7: input[bit=1]
c   8: input[bit=1]
c   15: input[bit=2]
c   16: input[bit=2]
c   24: input[bit=3]
c   25: input[bit=3]
c   34: input[bit=4]
c   35: input[bit=4]
c   43: input[bit=5]
c   44: input[bit=5]
c   52: input[bit=6]
c   53: input[bit=6]
c   61: input[bit=7]
c   62: input[bit=7]
c   71: input[bit=8]
c   72: input[bit=8]
c   81: input[bit=9]
c   82: input[bit=9]
c   91: input[bit=10]
c   92: input[bit=10]
c   101: input[bit=11]
c   102: input[bit=11]
c   111: input[bit=12]
c   112: input[bit=12]
c   121: input[bit=13]
c   122: input[bit=13]
c   131: input[bit=14]
c   132: input[bit=14]
c   141: input[bit=15]
c   142: input[bit=15]
c   150: ?
p cnf 150 532
-2 -3 0
2 3 0
-3 -4 0
3 4 0
1 4 -5 0
1 -4 5 0
-1 4 5 0
-1 -4 -5 0
-5 -6 0
5 6 0
-8 -9 0
8 9 0
-10 0
9 10 3 -11 0
9 10 -3 11 0
9 -10 3 11 0
9 -10 -3 -11 0
-9 10 3 11 0
-9 10 -3 -11 0
-9 -10 3 -11 0
-9 -10 -3 11 0
-1 -4 12 0
1 -12 0
4 -12 0
7 11 12 -13 0
7 11 -12 13 0
7 -11 12 13 0
7 -11 -12 -13 0
-7 11 12 13 0
-7 11 -12 -13 0
-7 -11 12 -13 0
-7 -11 -12 13 0
-6 -13 14 0
6 -14 0
13 -14 0
-16 -17 0
16 17 0
-18 0
9 10 -19 0
9 3 -19 0
-10 -3 19 0
10 3 -19 0
-9 -3 19 0
-9 -10 19 0
17 18 19 -20 0
17 18 -19 20 0
17 -18 19 20 0
17 -18 -19 -20 0
-17 18 19 20 0
-17 18 -19 -20 0
-17 -18 19 -20 0
-17 -18 -19 20 0
7 11 -21 0
7 12 -21 0
-11 -12 21 0
11 12 -21 0
-7 -12 21 0
-7 -11 21 0
15 20 21 -22 0
15 20 -21 22 0
15 -20 21 22 0
15 -20 -21 -22 0
-15 20 21 22 0
-15 20 -21 -22 0
-15 -20 21 -22 0
-15 -20 -21 22 0
-14 -22 23 0
14 -23 0
22 -23 0
-25 -26 0
25 26 0
-27 0
17 18 -28 0
17 19 -28 0
-18 -19 28 0
18 19 -28 0
-17 -19 28 0
-17 -18 28 0
26 27 28 -29 0
26 27 -28 29 0
26 -27 28 29 0
26 -27 -28 -29 0
-26 27 28 29 0
-26 27 -28 -29 0
-26 -27 28 -29 0
-26 -27 -28 29 0
15 20 -30 0
15 21 -30 0
-20 -21 30 0
20 21 -30 0
-15 -21 30 0
-15 -20 30 0
24 29 30 -31 0
24 29 -30 31 0
24 -29 30 31 0
24 -29 -30 -31 0
-24 29 30 31 0
-24 29 -30 -31 0
-24 -29 30 -31 0
-24 -29 -30 31 0
-31 -32 0
31 32 0
-23 -32 33 0
23 -33 0
32 -33 0
-35 -36 0
35 36 0
-37 0
26 27 -38 0
26 28 -38 0
-27 -28 38 0
27 28 -38 0
-26 -28 38 0
-26 -27 38 0
36 37 38 -39 0
36 37 -38 39 0
36 -37 38 39 0
36 -37 -38 -39 0
-36 37 38 39 0
-36 37 -38 -39 0
-36 -37 38 -39 0
-36 -37 -38 39 0
24 29 -40 0
24 30 -40 0
-29 -30 40 0
29 30 -40 0
-24 -30 40 0
-24 -29 40 0
34 39 40 -41 0
34 39 -40 41 0
34 -39 40 41 0
34 -39 -40 -41 0
-34 39 40 41 0
-34 39 -40 -41 0
-34 -39 40 -41 0
-34 -39 -40 41 0
-33 -41 42 0
33 -42 0
41 -42 0
-44 -45 0
44 45 0
-46 0
36 37 -47 0
36 38 -47 0
-37 -38 47 0
37 38 -47 0
-36 -38 47 0
-36 -37 47 0
45 46 47 -48 0
45 46 -47 48 0
45 -46 47 48 0
45 -46 -47 -48 0
-45 46 47 48 0
-45 46 -47 -48 0
-45 -46 47 -48 0
-45 -46 -47 48 0
34 39 -49 0
34 40 -49 0
-39 -40 49 0
39 40 -49 0
-34 -40 49 0
-34 -39 49 0
43 48 49 -50 0
43 48 -49 50 0
43 -48 49 50 0
43 -48 -49 -50 0
-43 48 49 50 0
-43 48 -49 -50 0
-43 -48 49 -50 0
-43 -48 -49 50 0
-42 -50 51 0
42 -51 0
50 -51 0
-53 -54 0
53 54 0
-55 0
45 46 -56 0
45 47 -56 0
-46 -47 56 0
46 47 -56 0
-45 -47 56 0
-45 -46 56 0
54 55 56 -57 0
54 55 -56 57 0
54 -55 56 57 0
54 -55 -56 -57 0
-54 55 56 57 0
-54 55 -56 -57 0
-54 -55 56 -57 0
-54 -55 -56 57 0
43 48 -58 0
43 49 -58 0
-48 -49 58 0
48 49 -58 0
-43 -49 58 0
-43 -48 58 0
52 57 58 -59 0
52 57 -58 59 0
52 -57 58 59 0
52 -57 -58 -59 0
-52 57 58 59 0
-52 57 -58 -59 0
-52 -57 58 -59 0
-52 -57 -58 59 0
-51 -59 60 0
51 -60 0
59 -60 0
-62 -63 0
62 63 0
-64 0
54 55 -65 0
54 56 -65 0
-55 -56 65 0
55 56 -65 0
-54 -56 65 0
-54 -55 65 0
63 64 65 -66 0
63 64 -65 66 0
63 -64 65 66 0
63 -64 -65 -66 0
-63 64 65 66 0
-63 64 -65 -66 0
-63 -64 65 -66 0
-63 -64 -65 66 0
52 57 -67 0
52 58 -67 0
-57 -58 67 0
57 58 -67 0
-52 -58 67 0
-52 -57 67 0
61 66 67 -68 0
61 66 -67 68 0
61 -66 67 68 0
61 -66 -67 -68 0
-61 66 67 68 0
-61 66 -67 -68 0
-61 -66 67 -68 0
-61 -66 -67 68 0
-68 -69 0
68 69 0
-60 -69 70 0
60 -70 0
69 -70 0
-72 -73 0
72 73 0
-74 0
63 64 -75 0
63 65 -75 0
-64 -65 75 0
64 65 -75 0
-63 -65 75 0
-63 -64 75 0
73 74 75 -76 0
73 74 -75 76 0
73 -74 75 76 0
73 -74 -75 -76 0
-73 74 75 76 0
-73 74 -75 -76 0
-73 -74 75 -76 0
-73 -74 -75 76 0
61 66 -77 0
61 67 -77 0
-66 -67 77 0
66 67 -77 0
-61 -67 77 0
-61 -66 77 0
71 76 77 -78 0
71 76 -77 78 0
71 -76 77 78 0
71 -76 -77 -78 0
-71 76 77 78 0
-71 76 -77 -78 0
-71 -76 77 -78 0
-71 -76 -77 78 0
-78 -79 0
78 79 0
-70 -79 80 0
70 -80 0
79 -80 0
-82 -83 0
82 83 0
-84 0
73 74 -85 0
73 75 -85 0
-74 -75 85 0
74 75 -85 0
-73 -75 85 0
-73 -74 85 0
83 84 85 -86 0
83 84 -85 86 0
83 -84 85 86 0
83 -84 -85 -86 0
-83 84 85 86 0
-83 84 -85 -86 0
-83 -84 85 -86 0
-83 -84 -85 86 0
71 76 -87 0
71 77 -87 0
-76 -77 87 0
76 77 -87 0
-71 -77 87 0
-71 -76 87 0
81 86 87 -88 0
81 86 -87 88 0
81 -86 87 88 0
81 -86 -87 -88 0
-81 86 87 88 0
-81 86 -87 -88 0
-81 -86 87 -88 0
-81 -86 -87 88 0
-88 -89 0
88 89 0
-80 -89 90 0
80 -90 0
89 -90 0
-92 -93 0
92 93 0
-94 0
83 84 -95 0
83 85 -95 0
-84 -85 95 0
84 85 -95 0
-83 -85 95 0
-83 -84 95 0
93 94 95 -96 0
93 94 -95 96 0
93 -94 95 96 0
93 -94 -95 -96 0
-93 94 95 96 0
-93 94 -95 -96 0
-93 -94 95 -96 0
-93 -94 -95 96 0
81 86 -97 0
81 87 -97 0
-86 -87 97 0
86 87 -97 0
-81 -87 97 0
-81 -86 97 0
91 96 97 -98 0
91 96 -97 98 0
91 -96 97 98 0
91 -96 -97 -98 0
-91 96 97 98 0
-91 96 -97 -98 0
-91 -96 97 -98 0
-91 -96 -97 98 0
-98 -99 0
98 99 0
-90 -99 100 0
90 -100 0
99 -100 0
-102 -103 0
102 103 0
-104 0
93 94 -105 0
93 95 -105 0
-94 -95 105 0
94 95 -105 0
-93 -95 105 0
-93 -94 105 0
103 104 105 -106 0
103 104 -105 106 0
103 -104 105 106 0
103 -104 -105 -106 0
-103 104 105 106 0
-103 104 -105 -106 0
-103 -104 105 -106 0
-103 -104 -105 106 0
91 96 -107 0
91 97 -107 0
-96 -97 107 0
96 97 -107 0
-91 -97 107 0
-91 -96 107 0
101 106 107 -108 0
101 106 -107 108 0
101 -106 107 108 0
101 -106 -107 -108 0
-101 106 107 108 0
-101 106 -107 -108 0
-101 -106 107 -108 0
-101 -106 -107 108 0
-108 -109 0
108 109 0
-100 -109 110 0
100 -110 0
109 -110 0
-112 -113 0
112 113 0
-114 0
103 104 -115 0
103 105 -115 0
-104 -105 115 0
104 105 -115 0
-103 -105 115 0
-103 -104 115 0
113 114 115 -116 0
113 114 -115 116 0
113 -114 115 116 0
113 -114 -115 -116 0
-113 114 115 116 0
-113 114 -115 -116 0
-113 -114 115 -116 0
-113 -114 -115 116 0
101 106 -117 0
101 107 -117 0
-106 -107 117 0
106 107 -117 0
-101 -107 117 0
-101 -106 117 0
111 116 117 -118 0
111 116 -117 118 0
111 -116 117 118 0
111 -116 -117 -118 0
-111 116 117 118 0
-111 116 -117 -118 0
-111 -116 117 -118 0
-111 -116 -117 118 0
-118 -119 0
118 119 0
-110 -119 120 0
110 -120 0
119 -120 0
-122 -123 0
122 123 0
-124 0
113 114 -125 0
113 115 -125 0
-114 -115 125 0
114 115 -125 0
-113 -115 125 0
-113 -114 125 0
123 124 125 -126 0
123 124 -125 126 0
123 -124 125 126 0
123 -124 -125 -126 0
-123 124 125 126 0
-123 124 -125 -126 0
-123 -124 125 -126 0
-123 -124 -125 126 0
111 116 -127 0
111 117 -127 0
-116 -117 127 0
116 117 -127 0
-111 -117 127 0
-111 -116 127 0
121 126 127 -128 0
121 126 -127 128 0
121 -126 127 128 0
121 -126 -127 -128 0
-121 126 127 128 0
-121 126 -127 -128 0
-121 -126 127 -128 0
-121 -126 -127 128 0
-128 -129 0
128 129 0
-120 -129 130 0
120 -130 0
129 -130 0
-132 -133 0
132 133 0
-134 0
123 124 -135 0
123 125 -135 0
-124 -125 135 0
124 125 -135 0
-123 -125 135 0
-123 -124 135 0
133 134 135 -136 0
133 134 -135 136 0
133 -134 135 136 0
133 -134 -135 -136 0
-133 134 135 136 0
-133 134 -135 -136 0
-133 -134 135 -136 0
-133 -134 -135 136 0
121 126 -137 0
121 127 -137 0
-126 -127 137 0
126 127 -137 0
-121 -127 137 0
-121 -126 137 0
131 136 137 -138 0
131 136 -137 138 0
131 -136 137 138 0
131 -136 -137 -138 0
-131 136 137 138 0
-131 136 -137 -138 0
-131 -136 137 -138 0
-131 -136 -137 138 0
-138 -139 0
138 139 0
-130 -139 140 0
130 -140 0
139 -140 0
-142 -143 0
142 143 0
-144 0
133 134 -145 0
133 135 -145 0
-134 -135 145 0
134 135 -145 0
-133 -135 145 0
-133 -134 145 0
143 144 145 -146 0
143 144 -145 146 0
143 -144 145 146 0
143 -144 -145 -146 0
-143 144 145 146 0
-143 144 -145 -146 0
-143 -144 145 -146 0
-143 -144 -145 146 0
131 136 -147 0
131 137 -147 0
-136 -137 147 0
136 137 -147 0
-131 -137 147 0
-131 -136 147 0
141 146 147 -148 0
141 146 -147 148 0
141 -146 147 148 0
141 -146 -147 -148 0
-141 146 147 148 0
-141 146 -147 -148 0
-141 -146 147 -148 0
-141 -146 -147 148 0
-148 -149 0
148 149 0
-140 -149 150 0
140 -150 0
149 -150 0
150 0
